TYPE : Vertex Cover
DIMENSION: 25
EDGE_DATA_SECTION:
0 3
0 7
0 8
0 17
0 19
0 20
0 23
1 5
1 11
1 12
1 19
2 12
2 22
3 11
3 12
3 18
3 19
3 23
4 10
4 13
4 14
4 17
5 9
5 10
5 11
5 13
5 24
6 7
6 11
6 12
6 16
6 19
6 23
7 8
7 11
7 17
7 22
8 14
8 17
8 19
8 22
8 23
8 24
9 10
9 21
10 11
10 13
10 15
11 21
11 22
12 16
12 22
12 24
13 18
13 20
13 21
13 23
13 24
14 16
14 18
14 19
14 20
14 21
14 22
15 22
15 23
16 19
16 23
17 19
17 22
17 23
17 24
19 24
-1
VERTEX_DEGREE:
7.0 4.0 2.0 6.0 4.0 6.0 6.0 6.0 8.0 3.0 6.0 8.0 7.0 8.0 8.0 3.0 5.0 8.0 3.0 9.0 3.0 4.0 8.0 8.0 6.0
VERTEX_COVER:
0 5 6 8 9 10 11 12 13 14 17 18 19 22 23
EOF
